Minimize

75 x_0 + 10 x_1 + 15 x_2 + 50 x_3 + 80 x_4 + 95 x_5 + 25 x_6


Subject To

a0: 5 + 4 + 2 + 2 + 5 + 5 + 4 - 3 x_0 - 3 x_1 - 3 x_2 - 3 x_3 - 3 x_4 - 3 x_5 - 3 x_6 <= 0
b0: x_0 + x_6 >= 1
b1: x_1 + x_5 >= 1
b2: x_2 + x_4 >= 1
b3: x_3 >= 1
b4: x_2 + x_4 >= 1
b5: x_1 + x_5 >= 1
b6: x_0 + x_6 >= 1
c0: 75 x_0 + 25 x_6 <= 100
c1: 10 x_1 + 95 x_5 <= 100
c2: 15 x_2 + 80 x_4 <= 100
c3: 50 x_3 <= 100
c4: 15 x_2 + 80 x_4 <= 100
c5: 10 x_1 + 95 x_5 <= 100
c6: 75 x_0 + 25 x_6 <= 100




Binary

x_0 x_1 x_2 x_3 x_4 x_5 x_6

 


End
